
Gurobi 8.1.0 (win64, Python) logging started 02/14/19 00:31:06

Academic license - for non-commercial use only

Gurobi 8.1.0 (win64, Python) logging started 02/14/19 01:27:43

Academic license - for non-commercial use only

Gurobi 8.1.0 (win64, Python) logging started 02/14/19 01:28:16

Academic license - for non-commercial use only
Warning: constraint name "floors floor_1" has a space

Gurobi 8.1.0 (win64, Python) logging started 02/14/19 01:28:41

Academic license - for non-commercial use only

Gurobi 8.1.0 (win64, Python) logging started 02/14/19 01:30:55

Academic license - for non-commercial use only

Gurobi 8.1.0 (win64, Python) logging started 02/14/19 01:37:25

Academic license - for non-commercial use only

Gurobi 8.1.0 (win64, Python) logging started 02/14/19 01:53:27

Academic license - for non-commercial use only

Gurobi 8.1.0 (win64, Python) logging started 02/14/19 02:06:47

Academic license - for non-commercial use only
Optimize a model with 12 rows, 28 columns and 84 nonzeros
Coefficient statistics:
  Matrix range     [5e-01, 6e+00]
  Objective range  [2e+02, 1e+03]
  Bounds range     [0e+00, 0e+00]
  RHS range        [1e+02, 1e+03]
Presolve removed 12 rows and 28 columns
Presolve time: 0.10s
Presolve: All rows and columns removed
Iteration    Objective       Primal Inf.    Dual Inf.      Time
       0   -0.0000000e+00   0.000000e+00   0.000000e+00      0s

Solved in 0 iterations and 0.23 seconds
Optimal objective -0.000000000e+00

Gurobi 8.1.0 (win64, Python) logging started 02/14/19 02:07:31

Academic license - for non-commercial use only
Optimize a model with 12 rows, 28 columns and 84 nonzeros
Coefficient statistics:
  Matrix range     [5e-01, 6e+00]
  Objective range  [2e+02, 1e+03]
  Bounds range     [0e+00, 0e+00]
  RHS range        [1e+02, 1e+03]
Presolve removed 12 rows and 28 columns
Presolve time: 0.00s
Presolve: All rows and columns removed
Iteration    Objective       Primal Inf.    Dual Inf.      Time
       0   -0.0000000e+00   0.000000e+00   0.000000e+00      0s

Solved in 0 iterations and 0.01 seconds
Optimal objective -0.000000000e+00

Gurobi 8.1.0 (win64, Python) logging started 02/14/19 02:11:51

Academic license - for non-commercial use only
Optimize a model with 12 rows, 28 columns and 84 nonzeros
Coefficient statistics:
  Matrix range     [5e-01, 6e+00]
  Objective range  [6e+02, 3e+03]
  Bounds range     [0e+00, 0e+00]
  RHS range        [1e+02, 1e+03]
Presolve time: 0.02s
Presolved: 12 rows, 28 columns, 84 nonzeros

Iteration    Objective       Primal Inf.    Dual Inf.      Time
       0    5.7400000e+34   5.313000e+31   5.740000e+04      0s
      12    2.0948750e+06   0.000000e+00   0.000000e+00      0s

Solved in 12 iterations and 0.15 seconds
Optimal objective  2.094875000e+06
